n = 50;
C = 261;
w = [176,148,102,144,201,221,499,490,103,13,180,302,457,442,224,146,127,469,131,418,201,356,404,234,300,115,228,492,437,108,420,433,212,34,207,199,196,199,139,266,248,412,37,483,145,204,231,474,313,343];
p = [176,148,102,144,201,221,499,490,103,13,180,302,457,442,224,146,127,469,131,418,201,356,404,234,300,115,228,492,437,108,420,433,212,34,207,199,196,199,139,266,248,412,37,483,145,204,231,474,313,343];
